"用Newton-Raphson法求解线接触弹流润滑问题基本方程，研究了线接触弹流润滑状态下中心压力、二次峰压力及其位置的影响因素(载荷、速度及材料参数)。在大量数值解结果基础上，通过多元回归分析，给出了中心压力、二次峰压力及其位置关于载荷、速度、材料参数的拟合公式，并对拟合公式的显著性和精确性进行了检验。结果表明：在很宽的参数范围内，本文所提出的拟合公式具有高度的显著性，变量之间具有密切的相关性及交互性；同时，拟合公式具有很高的计算精度，完全可以满足工程应用的需要。 关键词 :线接触，弹流润滑，中心压力，二次峰压力，二次峰位置，拟合公式 Copyright © 2017 by authors and Hans Publishers Inc. This work is licensed under the Creative Commons Attribution International License (CC BY). http://creativecommons.org/licenses/by/4.0/"
"齿轮、滚动轴承等高副接触机械零件，由于接触面积狭小，工作时接触区会产生很大的局部应力——接触应力，准确地确定其接触应力对此类机械零件的强度设计以及寿命预测具有重要意义。 目前，工程上对此类零件进行强度设计时,通常都是采用赫兹应力公式或有限元等数值方法，但无论哪种方法都没有考虑接触表面间的润滑效应，实际上，此类机械零件都是在润滑良好的环境中工作的，润滑对此类零件非常重要。 理论和实践都证明，在一定条件下，齿轮、滚动轴承等的表面会形成弹性流体动力润滑油膜 [ 1 ] (Elastohydrodynamic Lubrication，简称EHL)。弹流润滑状态下接触表面应力的分布与干接触状态下赫兹接触应力分布完全不同，其中最明显的就是在出油口附件出现二次压力峰，二次压力峰产生强烈的应力集中，对零件的疲劳寿命具有重要的影响 [ 2 ] 。 Bisset和D.W.Glander [ 3 ] 等研究证明弹流二次压力峰是连续的、光滑的。1986年，Hamrock等 [ 4 ] 提出了一个线接触EHL状态下二次压力峰公式。1989年，Ping Pan和Hamrock [ 5 ] 又对此进行了进一步的研究。在国内，齐秀梅和高创宽提出了线接触弹流油膜二次峰压力和主剪应力最大值关于载荷和速度的回归方程 [ 6 ] ，汪久根 [ 7 ] 提出了线接触部分膜弹流二次压力峰的拟合公式。夏伯乾等 [ 8 ] 提出了点接触EHL状态下中心压力和二次峰压力的拟合公式。 上述研究中，除文献 [ 6 ] 使用了二元回归方法外，其它研究都使用的是一元回归法，但是，文献 [ 6 ] 没有考虑材料参数的影响。一元回归反映一个因变量与一个自变量之间的关系，多元回归 [ 9 ] 反映一个因变量与多个自变量之间的关系，并且能够很好保持变量之间的交互性和相关性。EHL状态下的中心压力、二次峰压力及其位置受载荷、速度、润滑油粘度、材料参数等多种因素的影响，所以，在研究EHL状态下的中心压力、二次峰压力及其位置时，使用多元回归法比一元回归法更合理、更符合实际。 众所周知，金属材料的接触疲劳主要取决于材料次表面的von Mises应力，而EHL状态下的最大von Mises应力不仅与二次峰压力大小有关，而且与其位置有关。所以，在研究EHL应力对疲劳寿命的影响或关系时，二次峰压力的位置也是一个非常重要的参数。但在已有的研究中，除 [ 5 ] 外，都没有关注和研究二次压力峰的位置。 本文用Newton-Raphson法求解线接触EHL问题方程，在大量数值解结果基础上，运用多元回归分析，给出了线接触EHL状态下中心压力、二次峰压力及其位置关于无量纲载荷、速度、材料参数的拟合公式，并对拟合公式的显著性和精度进行了检验，结果表明，在很宽参数范围内，本文所给出的拟合公式的精度是令人满意的，完全可以满足工程应用需要，为研究高副零件弹流状态下的强度设计及寿命预测提供了一个简单实用的工具。"
"稳态线接触EHL的基本方程包括： 1) 雷诺方程 (1) 边界条件为： 2) 油膜厚度方程 (2) 3) 粘压方程 (3) 4) 密压方程 (4) 5) 载荷平衡方程 (5) 其中，公式中各字母含义及无量纲方式见表1。"
"用Newton-Raphson法求解EHL润滑基本方程 [ 1 ] ，计算参数为： ， ， 。表2给出了部分结果，图1~图3显示了中心压力、二次峰压力及其位置随载荷、速度、材料参数的变化情况。 由图1~图3可以看到，压力分布具有弹流压力分布的典型特征，同时又从表2可以看出，本文计算所得的最小膜厚、中心膜厚与Dowson-Higginson [ 1 ] 公式计算结果十分接近。表明本文计算的结果是正确可信的。  文献 [ 4 ] [ 5 ] [ 6 ] 等的研究表明：二次压力峰、中心压力及二次压力峰位置与无量纲速度、载荷及材料参数之间呈指数关系。因此，本文将线接触弹流润滑状态下无量纲二次压力峰、中心压力及二次压力峰位置关于无量纲载荷、速度及材料参数的关系表示为： Table 1 符号名称 符号意义 符号名称 符号意义 空间坐标 油膜压力(GPa) 进油口，出油口(mm) 无量纲油膜压力， 固体i的泊松比 总载荷(N) 二次压力峰幅值(GPa) 卷吸速度(m/s)， 中心压力幅值(GPa) 润滑油粘度(Pa∙S) 二次压力峰位置(m) 润滑油密度(g/cm 3 ) 无量纲二次压力峰幅值， 无量纲速度， 无量纲中心压力幅值， 无量纲载荷， 无量纲二次压力峰位置， 无量纲材料参数， 油膜厚度(m) 无量纲空间坐标， Dowson-Higginson公式计算结果 粘压指数 常压下润滑油粘度(Pa∙S) 常压下润滑油密度(g/cm 3 ) 中心油膜厚度(m) x方向上的综合曲率半径(mm)， 固体i的弹性模量(GPa) 当量(综合)弹性模量(GPa)， 表1. 符号说明 Table 2 2.5 1.5 5000 0.385 0.403 0.418 0.459 1.312 0.965 0.731 4.47 3.8 4 5000 0.538 0.517 0.567 0.574 1.54 0.958 0.792 3.9 15 10 5000 0.197 0.209 0.216 0.218 1.316 0.979 0.935 5.74 4.9 1 5000 0.127 0.136 0.143 0.152 0.954 0.984 0.875 6.61 6 0.75 5000 0.086 0.087 0.092 0.096 0.783 0.989 0.905 1.15 8 5 2500 0.169 0.179 0.186 0.210 0.927 0.98 0.77 5.59 8 3.8 5000 0.191 0.209 0.218 0.226 1.157 0.978 0.901 8.61 4.9 0.85 5000 0.112 0.121 0.123 0.135 0.911 0.985 0.873 7.44 4.6 1 5000 0.133 0.146 0.148 0.164 0.984 0.983 0.858 8.9 3.8 1.6 7500 0.313 0.322 0.329 0.343 1.397 0.967 0.895 2.8 1 0.3 6000 0.367 0.384 0.439 0.451 1.134 0.968 0.598 4.43 1 0.3 7000 0.391 0.417 0.483 0.479 1.248 0.971 0.633 6.24 4 1.5 4000 0.189 0.207 0.223 0.239 1.029 0.978 0.768 8.7 4 1.5 3000 0.161 0.178 0.189 0.213 0.879 0.976 0.728 9.55 5.6 2.3 7500 0.266 0.267 0.275 0.282 1.366 0.973 0.923 0.38 表2. 线接触弹流润滑部分计算结果 (6) 对式(6)两边取对数进行线性化处理得： (7) 图1. 压力二次峰随载荷变化情况 图2. 压力二次峰随速度变化情况 图3. 压力二次峰随材料参数变化  本文采用三元线性回归分析 [ 9 ] ，其公式为： (8) 式中， 为常数项， ， ， 分别称为 对 ， ， 的回归系数，其值可由下式确定： (9) 式中： ， ， 为数据组数； 针对式(7)的每一个方程分别令： ， ， ， ， ， ， ， ， ， ， ， ， 求W、U、G、P c 、P s 、X s 的对数，得到由lnW、lnU、lnG及lnP c 、lnP s 、lnX s 形成的数据样本，由此数据样本计算L ij 、L iy (i = 1~3)，进而得到由最小二乘原理形成的方程组(9)，求解方程组(9)，得到 及 ， ， 。 根据大量数值解结果，我们得到压力二次峰、中心压力及二次压力峰位置关于无量纲载荷、速度及材料参数的回归方程： (10) (11) (12)"
"为对回归方程进行显著性检验，将总偏差平方和 分解为两部分： 式中： 代表回归差方和，其值为： ； 代表剩余差方和，其值为： ； 代表回归方程中自变量的个数，它是回归差方和的自由度，对三元回归， 。 对于多元回归分析来说，相关系数为： (13) a) 若 ，说明自变量与因变量之间有完全确定的函数关系，此时的相关性及密切程度最高； b) 若 ，说明自变量与因变量之间没有任何相关关系，此时的相关程度最差； c) 若 ，说明自变量与因变量之间有相关关系，并且 值越大，变量之间的相关密切度就越好。  由上述分析可以知道，回归差方和或剩余差方和的变化对变量之间的相关密切程度具有重要的影响。在统计学中，把回归差方和与剩余差方和的比值称为 函数，并用它来对回归方程进行显著性检验，这种检验称为 检验。表3列出了对回归方程进行 检验的相关公式。 由式(13)可以求得式(10)~(12)的相关系数，对回归方程进行检验，其相关结果如表4。 值较高时相对应的 值也较大。也就是说，如果变量之间相关密切程度高的话，回归方程也就显著性程度高。说明相关系数对回归方程的度量与 函数的检验在本质上是一致的。从表4可以看出：本文回归得到的式(10)~(12)的相关密切程度都是很高的，所以，从显著性检验方面来说是完全可信的。"
"除了对回归方程显著性进行检验，还对回归方程进行了精度校核，结果如表5。 表5中， 分别代表数值解结果， 分别代表用本文拟合公式计算结果， 分别代表二者的相对误差。从表5可以得到：在很宽的参数范围内( 从0.21 GPa到1.21 GPa， 从0.5 m/s到20 m/s， 从2500到7500)，本文拟合得到的公式计算值与数值结果相比，精度都是很高的，完全可以满足工程应用要求。 Table 3 方差来源 平方和 自由度 均方 回归 剩余 总和 表3. 回归方差分析表 Table 4 方程 方差来源 平方和 自由度 均方 相关系数 检验结果 方程(10) 0.8575 3 0.2858 线性相关密切程度很高 回归方程高度显著 0.0417 27 1.5e-3 0.9992 30 0.027 方程(11) 0.0038 3 1.3e-3 线性相关密切程度很高 回归方程高度显著 3.26e-4 34 9.592e-6 0.00413 37 1.116e-4 方程(12) 0.3031 3 0.10103 线性相关密切程度很高 回归方程显著性较高 0.1025 27 3.796e-3 0.4056 30 0.01352 表4. 回归方程计算与检验结果 Table 5 W*10 −5 U*10 −5 2.5 1.5 5000 1.246 1.334 6.528 0.973 0.967 0.145 0.73 0.736 0.827 3 1.5 5000 1.274 1.251 1.782 0.971 0.969 0.127 0.756 0.751 0.746 5 2 5000 1.174 1.172 0.161 0.976 0.975 0.214 0.829 0.788 5.251 15 10 5000 1.316 1.329 1.008 0.979 0.976 0.38 0.935 0.988 5.731 3.8 3 5000 1.43 1.416 0.991 0.963 0.965 0.437 0.779 0.759 2.737 4.9 1 5000 0.976 0.973 0.28 0.984 0.982 0.117 0.839 0.797 5.155 5.6 1.8 5000 1.1 1.102 0.189 0.979 0.978 0.152 0.849 0.799 6.299 6 0.25 5000 0.625 0.627 0.25 0.994 1.001 0.799 0.899 0.839 7.187 6 4.5 5000 1.385 1.392 0.482 0.968 0.969 0.587 0.843 0.789 6.816 6 6 5000 1.499 1.506 0.505 0.963 0.966 0.726 0.838 0.785 6.779 6.8 2.3 5000 1.107 1.116 0.826 0.98 0.978 0.251 0.877 0.811 8.063 8 0.75 5000 0.773 0.782 1.254 0.992 0.994 0.303 0.927 0.845 9.737 3.8 1.6 7500 1.41 1.465 3.86 0.968 0.969 0.852 0.852 0.793 7.465 5 2 2500 0.895 0.823 8.078 0.978 0.98 1 0.729 0.747 2.415 5 2 4000 1.076 1.045 2.781 0.98 0.977 0.179 0.795 0.774 2.719 6 2 6000 1.19 1.221 2.623 0.978 0.976 0.518 0.888 0.814 9.068 6 4 4000 1.229 1.202 2.165 0.973 0.972 0.136 0.811 0.778 4.262 8 5 2500 0.993 0.927 6.634 0.984 0.978 0.611 0.782 0.77 1.513 表5. 回归方程精度校核"
"1) 线接触弹流润滑状态下无量纲速度 、载荷 以及材料参数 对二次压力峰 、中心压力 以及二次压力峰位置 的关系可表为： ； ； ； 其有量纲形式分别为： ； ； ； 2) 对上述拟合公式的显著性检验表明，拟合公式高度显著，变量之间的密切度很高。 3) 对拟合公式进行的精度校核表明，在很宽的参数范围内，本文提出的拟合公式均具有令人满意的精度，完全可以满足工程应用需要。 4) 为高副接触零件的强度设计以及疲劳寿命预测提供了一个简单而实用工具，有效减少计算工作量。"
